certificates/rado_a11_c7_N65.cnf
c Rad2 upper bound instance: x1 + 11*x2 - x3 = 7, interval [1,65]
p cnf 65 402
1 5 0
-1 -5 0
1 2 16 0
-1 -2 -16 0
1 3 27 0
-1 -3 -27 0
1 4 38 0
-1 -4 -38 0
1 5 49 0
-1 -5 -49 0
1 6 60 0
-1 -6 -60 0
1 2 6 0
-1 -2 -6 0
2 17 0
-2 -17 0
2 3 28 0
-2 -3 -28 0
2 4 39 0
-2 -4 -39 0
2 5 50 0
-2 -5 -50 0
2 6 61 0
-2 -6 -61 0
1 3 7 0
-1 -3 -7 0
2 3 18 0
-2 -3 -18 0
3 29 0
-3 -29 0
3 4 40 0
-3 -4 -40 0
3 5 51 0
-3 -5 -51 0
3 6 62 0
-3 -6 -62 0
1 4 8 0
-1 -4 -8 0
2 4 19 0
-2 -4 -19 0
3 4 30 0
-3 -4 -30 0
4 41 0
-4 -41 0
4 5 52 0
-4 -5 -52 0
4 6 63 0
-4 -6 -63 0
1 5 9 0
-1 -5 -9 0
2 5 20 0
-2 -5 -20 0
3 5 31 0
-3 -5 -31 0
4 5 42 0
-4 -5 -42 0
5 53 0
-5 -53 0
5 6 64 0
-5 -6 -64 0
1 6 10 0
-1 -6 -10 0
2 6 21 0
-2 -6 -21 0
3 6 32 0
-3 -6 -32 0
4 6 43 0
-4 -6 -43 0
5 6 54 0
-5 -6 -54 0
6 65 0
-6 -65 0
1 7 11 0
-1 -7 -11 0
2 7 22 0
-2 -7 -22 0
3 7 33 0
-3 -7 -33 0
4 7 44 0
-4 -7 -44 0
5 7 55 0
-5 -7 -55 0
1 8 12 0
-1 -8 -12 0
2 8 23 0
-2 -8 -23 0
3 8 34 0
-3 -8 -34 0
4 8 45 0
-4 -8 -45 0
5 8 56 0
-5 -8 -56 0
1 9 13 0
-1 -9 -13 0
2 9 24 0
-2 -9 -24 0
3 9 35 0
-3 -9 -35 0
4 9 46 0
-4 -9 -46 0
5 9 57 0
-5 -9 -57 0
1 10 14 0
-1 -10 -14 0
2 10 25 0
-2 -10 -25 0
3 10 36 0
-3 -10 -36 0
4 10 47 0
-4 -10 -47 0
5 10 58 0
-5 -10 -58 0
1 11 15 0
-1 -11 -15 0
2 11 26 0
-2 -11 -26 0
3 11 37 0
-3 -11 -37 0
4 11 48 0
-4 -11 -48 0
5 11 59 0
-5 -11 -59 0
1 12 16 0
-1 -12 -16 0
2 12 27 0
-2 -12 -27 0
3 12 38 0
-3 -12 -38 0
4 12 49 0
-4 -12 -49 0
5 12 60 0
-5 -12 -60 0
1 13 17 0
-1 -13 -17 0
2 13 28 0
-2 -13 -28 0
3 13 39 0
-3 -13 -39 0
4 13 50 0
-4 -13 -50 0
5 13 61 0
-5 -13 -61 0
1 14 18 0
-1 -14 -18 0
2 14 29 0
-2 -14 -29 0
3 14 40 0
-3 -14 -40 0
4 14 51 0
-4 -14 -51 0
5 14 62 0
-5 -14 -62 0
1 15 19 0
-1 -15 -19 0
2 15 30 0
-2 -15 -30 0
3 15 41 0
-3 -15 -41 0
4 15 52 0
-4 -15 -52 0
5 15 63 0
-5 -15 -63 0
1 16 20 0
-1 -16 -20 0
2 16 31 0
-2 -16 -31 0
3 16 42 0
-3 -16 -42 0
4 16 53 0
-4 -16 -53 0
5 16 64 0
-5 -16 -64 0
1 17 21 0
-1 -17 -21 0
2 17 32 0
-2 -17 -32 0
3 17 43 0
-3 -17 -43 0
4 17 54 0
-4 -17 -54 0
5 17 65 0
-5 -17 -65 0
1 18 22 0
-1 -18 -22 0
2 18 33 0
-2 -18 -33 0
3 18 44 0
-3 -18 -44 0
4 18 55 0
-4 -18 -55 0
1 19 23 0
-1 -19 -23 0
2 19 34 0
-2 -19 -34 0
3 19 45 0
-3 -19 -45 0
4 19 56 0
-4 -19 -56 0
1 20 24 0
-1 -20 -24 0
2 20 35 0
-2 -20 -35 0
3 20 46 0
-3 -20 -46 0
4 20 57 0
-4 -20 -57 0
1 21 25 0
-1 -21 -25 0
2 21 36 0
-2 -21 -36 0
3 21 47 0
-3 -21 -47 0
4 21 58 0
-4 -21 -58 0
1 22 26 0
-1 -22 -26 0
2 22 37 0
-2 -22 -37 0
3 22 48 0
-3 -22 -48 0
4 22 59 0
-4 -22 -59 0
1 23 27 0
-1 -23 -27 0
2 23 38 0
-2 -23 -38 0
3 23 49 0
-3 -23 -49 0
4 23 60 0
-4 -23 -60 0
1 24 28 0
-1 -24 -28 0
2 24 39 0
-2 -24 -39 0
3 24 50 0
-3 -24 -50 0
4 24 61 0
-4 -24 -61 0
1 25 29 0
-1 -25 -29 0
2 25 40 0
-2 -25 -40 0
3 25 51 0
-3 -25 -51 0
4 25 62 0
-4 -25 -62 0
1 26 30 0
-1 -26 -30 0
2 26 41 0
-2 -26 -41 0
3 26 52 0
-3 -26 -52 0
4 26 63 0
-4 -26 -63 0
1 27 31 0
-1 -27 -31 0
2 27 42 0
-2 -27 -42 0
3 27 53 0
-3 -27 -53 0
4 27 64 0
-4 -27 -64 0
1 28 32 0
-1 -28 -32 0
2 28 43 0
-2 -28 -43 0
3 28 54 0
-3 -28 -54 0
4 28 65 0
-4 -28 -65 0
1 29 33 0
-1 -29 -33 0
2 29 44 0
-2 -29 -44 0
3 29 55 0
-3 -29 -55 0
1 30 34 0
-1 -30 -34 0
2 30 45 0
-2 -30 -45 0
3 30 56 0
-3 -30 -56 0
1 31 35 0
-1 -31 -35 0
2 31 46 0
-2 -31 -46 0
3 31 57 0
-3 -31 -57 0
1 32 36 0
-1 -32 -36 0
2 32 47 0
-2 -32 -47 0
3 32 58 0
-3 -32 -58 0
1 33 37 0
-1 -33 -37 0
2 33 48 0
-2 -33 -48 0
3 33 59 0
-3 -33 -59 0
1 34 38 0
-1 -34 -38 0
2 34 49 0
-2 -34 -49 0
3 34 60 0
-3 -34 -60 0
1 35 39 0
-1 -35 -39 0
2 35 50 0
-2 -35 -50 0
3 35 61 0
-3 -35 -61 0
1 36 40 0
-1 -36 -40 0
2 36 51 0
-2 -36 -51 0
3 36 62 0
-3 -36 -62 0
1 37 41 0
-1 -37 -41 0
2 37 52 0
-2 -37 -52 0
3 37 63 0
-3 -37 -63 0
1 38 42 0
-1 -38 -42 0
2 38 53 0
-2 -38 -53 0
3 38 64 0
-3 -38 -64 0
1 39 43 0
-1 -39 -43 0
2 39 54 0
-2 -39 -54 0
3 39 65 0
-3 -39 -65 0
1 40 44 0
-1 -40 -44 0
2 40 55 0
-2 -40 -55 0
1 41 45 0
-1 -41 -45 0
2 41 56 0
-2 -41 -56 0
1 42 46 0
-1 -42 -46 0
2 42 57 0
-2 -42 -57 0
1 43 47 0
-1 -43 -47 0
2 43 58 0
-2 -43 -58 0
1 44 48 0
-1 -44 -48 0
2 44 59 0
-2 -44 -59 0
1 45 49 0
-1 -45 -49 0
2 45 60 0
-2 -45 -60 0
1 46 50 0
-1 -46 -50 0
2 46 61 0
-2 -46 -61 0
1 47 51 0
-1 -47 -51 0
2 47 62 0
-2 -47 -62 0
1 48 52 0
-1 -48 -52 0
2 48 63 0
-2 -48 -63 0
1 49 53 0
-1 -49 -53 0
2 49 64 0
-2 -49 -64 0
1 50 54 0
-1 -50 -54 0
2 50 65 0
-2 -50 -65 0
1 51 55 0
-1 -51 -55 0
1 52 56 0
-1 -52 -56 0
1 53 57 0
-1 -53 -57 0
1 54 58 0
-1 -54 -58 0
1 55 59 0
-1 -55 -59 0
1 56 60 0
-1 -56 -60 0
1 57 61 0
-1 -57 -61 0
1 58 62 0
-1 -58 -62 0
1 59 63 0
-1 -59 -63 0
1 60 64 0
-1 -60 -64 0
1 61 65 0
-1 -61 -65 0
