certificates/rado_a11_c7_N65.drat
1 -64 6 0
-1 -65 0
1 6 0
d 60 1 6 0
-65 0
6 0
1 0
-5 0
-60 0
-10 0
-2 0
53 0
17 0
12 0
25 0
58 0
50 0
20 0
45 0
-57 0
-49 0
-21 0
-13 0
-16 0
-8 0
-29 0
-62 0
-54 0
-46 0
-24 0
-41 0
9 0
42 0
64 0
34 0
36 0
61 0
28 0
31 0
23 0
56 0
3 0
44 0
14 0
47 0
39 0
4 0
26 0
-38 0
-30 0
-40 0
-32 0
-35 0
-27 0
-19 0
-52 0
-7 0
-43 0
-18 0
-51 0
-48 0
-63 0
-22 0
15 0
55 0
37 0
0
